c Output_time 26.03.2020 18:15:19_+0100 1585242919155112553
c ** Program information **
c program_name                          "QBRG_debug"
c version                               "0.3.20"
c date                                  "25.3.2020"
c gid_id                                "673970833836058123f633335630c185360d632e"
c author                                "Oliver Kullmann"
c url                                   "https://github.com/OKullmann/oklibrary/blob/master/Satisfiability/Transformers/Generators/Random/QBRG.cpp"
c ** Machine information **
c machine_name                          "chyna-Lenovo-G50-70"
c bogomips                              3791.08
c ** Compilation information **
c compiler_version                      "g++ 7.5.0"
c compilation_date                      "Mar_26_2020 11:16:30"
c compilation_options                   "--std=c++17 -pedantic -fmax-errors=5 -Wall -Wextra -g -D_GLIBCXX_DEBUG"
c NDEBUG                                0
c OPTIMIZE                              0
c ** Parameters **
c command-line                          "./QBRG_debug" "a40 e40 a40 40" "409*1,1|2-2,1|3-3,1|4-4,1" "" "1,t" ""
c output                                "QuBlRaGe_160_409_1585242919154949957.qdimacs"
c options                               "filtered,renamed"
c num_quantifier_blocks                 4
c  quantifier_blocks                    1:a1-40 2:e41-80 3:a81-120 4:e121-160
c num_clause-blocks                     1
c  clause-blocks                        409 * {1-40,1,1/2} | {41-80,1,1/2} | {81-120,1,1/2} | {121-160,1,1/2}
c num_e-seeds                           37+2=39
c  e-seeds                              1 0 1 0 5 160 2 40 0 40 1 40 0 40 1 409 4 1 1 1 1 2 2 2 1 1 2 3 3 1 1 2 4 4 1 1 2 1 1585242919154949176
p cnf 160 409
a 1 2 3 4 5 6 7 8 9 10 11 12 13 14 15 16 17 18 19 20 21 22 23 24 25 26 27 28 29 30 31 32 33 34 35 36 37 38 39 40 0
e 41 42 43 44 45 46 47 48 49 50 51 52 53 54 55 56 57 58 59 60 61 62 63 64 65 66 67 68 69 70 71 72 73 74 75 76 77 78 79 80 0
a 81 82 83 84 85 86 87 88 89 90 91 92 93 94 95 96 97 98 99 100 101 102 103 104 105 106 107 108 109 110 111 112 113 114 115 116 117 118 119 120 0
e 121 122 123 124 125 126 127 128 129 130 131 132 133 134 135 136 137 138 139 140 141 142 143 144 145 146 147 148 149 150 151 152 153 154 155 156 157 158 159 160 0
-21 -78 -111 -121 0
28 61 111 -121 0
19 69 111 -121 0
-28 -48 -116 -121 0
-7 -47 118 -121 0
1 -56 89 121 0
-11 -52 94 121 0
30 -67 112 121 0
-2 53 -91 -122 0
-20 -61 -95 -122 0
14 70 98 -122 0
29 41 -86 122 0
-17 -73 102 122 0
-14 47 104 122 0
35 -48 104 122 0
29 74 106 122 0
24 77 -107 122 0
16 44 110 122 0
29 61 -117 122 0
-19 45 -99 -123 0
-13 61 -86 123 0
1 73 92 123 0
39 79 -97 123 0
-12 43 98 123 0
3 62 -84 -124 0
10 63 -101 -124 0
-38 56 -114 -124 0
-31 -62 86 124 0
-2 74 86 124 0
34 -70 97 124 0
3 -74 97 124 0
13 -61 98 124 0
10 48 85 -125 0
17 53 -96 -125 0
17 -49 117 -125 0
-24 -71 -119 -125 0
-5 55 88 125 0
8 -53 94 125 0
5 52 95 125 0
-22 -56 100 125 0
-25 58 -113 125 0
-25 76 -85 -126 0
30 58 87 -126 0
-8 75 92 -126 0
-37 -70 -106 -126 0
-13 67 112 -126 0
18 -51 118 -126 0
-31 51 83 126 0
-22 53 85 126 0
15 69 85 126 0
19 65 86 126 0
-6 -69 -91 126 0
4 -44 104 126 0
-14 52 104 126 0
5 -58 119 126 0
15 -44 -92 -127 0
25 -52 -93 -127 0
-2 -45 -97 -127 0
-14 59 104 -127 0
32 -44 105 -127 0
-38 -77 105 -127 0
27 54 113 -127 0
12 61 81 127 0
-17 61 -96 127 0
-38 55 96 127 0
-22 -47 112 127 0
-16 71 112 127 0
-35 72 85 -128 0
-2 -46 -87 -128 0
15 72 -95 -128 0
-2 68 98 -128 0
-14 -63 103 -128 0
-11 -58 113 -128 0
40 -50 86 128 0
13 43 98 128 0
8 49 99 128 0
31 -69 -101 128 0
6 -73 88 -129 0
-19 -79 -89 -129 0
-31 47 -93 -129 0
28 78 101 -129 0
-39 45 -104 -129 0
7 56 104 -129 0
35 -53 -107 -129 0
-30 48 -94 129 0
-33 55 98 129 0
-18 55 99 129 0
23 47 103 129 0
-8 -46 -104 129 0
-18 -77 105 129 0
6 68 108 129 0
-23 45 -115 129 0
-15 -80 -81 -130 0
20 -73 96 -130 0
16 55 -99 -130 0
-29 -52 -112 -130 0
4 -67 112 -130 0
-3 -64 -116 -130 0
-18 -69 -97 130 0
-30 -80 -105 130 0
-14 75 109 130 0
16 51 116 130 0
-2 72 82 -131 0
-6 76 -84 -131 0
-14 60 -100 -131 0
1 -73 112 -131 0
-38 -56 -113 -131 0
12 -65 -117 131 0
-11 72 -85 -132 0
13 60 86 -132 0
25 53 -102 132 0
4 -55 -102 132 0
-23 -80 104 132 0
-16 -65 -113 132 0
9 -60 -92 -133 0
-24 76 -103 -133 0
10 -63 -112 -133 0
-23 72 120 -133 0
-31 69 -85 133 0
-35 72 -105 133 0
-11 -67 106 133 0
16 -42 -119 133 0
-3 58 -83 -134 0
35 -43 -98 -134 0
-11 48 108 -134 0
39 74 -87 134 0
31 -79 -89 134 0
13 54 -97 134 0
27 -80 -102 134 0
31 47 108 134 0
35 -53 -109 134 0
-1 42 -82 -135 0
26 74 -87 -135 0
23 -71 -94 -135 0
27 45 96 -135 0
40 -45 99 -135 0
26 -68 111 -135 0
-18 67 -113 -135 0
-18 57 98 135 0
32 -75 116 135 0
40 -48 119 135 0
27 -75 -120 135 0
-23 62 -89 -136 0
-14 -73 -96 -136 0
30 41 -120 -136 0
19 -78 81 136 0
2 49 -95 136 0
24 69 115 136 0
-13 -60 -119 136 0
18 -65 85 -137 0
23 -47 88 -137 0
7 -68 -93 -137 0
-1 57 95 -137 0
33 63 -98 -137 0
27 -51 108 -137 0
1 74 -112 -137 0
12 -58 -114 -137 0
6 41 -117 -137 0
32 -62 -119 -137 0
25 -67 120 -137 0
-38 -41 95 137 0
-11 -79 101 137 0
-6 67 117 137 0
-2 64 -118 137 0
35 67 120 137 0
15 78 100 -138 0
-12 -64 -117 -138 0
-32 75 -119 -138 0
31 65 90 138 0
-2 -44 -95 138 0
27 47 -98 138 0
-3 -70 -101 138 0
38 60 -104 -139 0
-25 -75 111 -139 0
-38 65 -118 -139 0
8 -68 86 139 0
-10 60 101 139 0
-28 -51 108 139 0
20 -79 -111 139 0
12 -43 -116 139 0
6 76 117 139 0
6 44 -119 139 0
-11 -75 87 -140 0
-22 78 -89 -140 0
12 -60 -91 -140 0
-1 51 -93 -140 0
39 68 96 -140 0
1 55 -107 -140 0
-34 -59 118 -140 0
-16 62 -92 140 0
12 -57 -96 140 0
28 -63 100 140 0
24 44 -101 140 0
-4 -48 -106 140 0
7 -45 120 140 0
-17 -54 86 -141 0
14 -61 89 -141 0
27 -60 -91 -141 0
3 61 93 -141 0
17 -69 96 -141 0
-34 -68 97 -141 0
20 47 101 -141 0
31 -67 -113 -141 0
-15 59 -92 141 0
-7 -80 104 141 0
-21 -47 -117 141 0
1 74 -120 141 0
1 -47 120 141 0
15 -48 82 -142 0
-17 45 85 -142 0
-39 -74 90 -142 0
-38 55 -93 -142 0
-6 49 97 -142 0
-4 -45 108 -142 0
1 -49 101 142 0
-8 -57 86 -143 0
-20 -52 -94 -143 0
-28 -71 -84 143 0
18 -59 -102 143 0
-2 -58 104 143 0
17 71 -106 143 0
-31 59 110 143 0
-15 -60 -81 -144 0
3 -65 -85 -144 0
-20 42 -95 -144 0
-34 57 95 -144 0
38 61 -98 -144 0
-19 69 -82 144 0
28 46 -91 144 0
-27 -67 92 144 0
-35 62 -96 144 0
-8 -72 -101 144 0
-24 75 103 144 0
30 -50 -105 144 0
9 58 -107 144 0
-6 51 -108 144 0
24 44 -117 144 0
-21 43 -82 -145 0
-4 -48 -85 -145 0
-16 -68 88 -145 0
21 55 92 -145 0
8 -80 104 -145 0
-18 -41 -81 145 0
13 -63 -84 145 0
-2 71 -98 145 0
-21 69 108 145 0
15 49 -119 145 0
1 60 119 145 0
13 -63 91 -146 0
26 -63 -95 -146 0
-23 -73 -109 -146 0
27 59 -84 146 0
-22 -48 91 146 0
21 -55 96 146 0
-6 44 -99 146 0
22 -43 -110 146 0
-18 -80 81 -147 0
39 -62 82 -147 0
35 -64 87 -147 0
6 48 -91 -147 0
28 71 96 -147 0
-25 -47 -107 -147 0
8 -58 -109 -147 0
-27 45 -83 147 0
2 64 -87 147 0
28 -66 95 147 0
36 -54 -98 147 0
19 77 108 147 0
9 56 113 147 0
-23 -54 -81 -148 0
-7 46 87 -148 0
-39 55 -93 -148 0
22 77 -93 -148 0
-32 -71 106 -148 0
-8 -70 -107 -148 0
-8 46 118 -148 0
-7 76 -87 148 0
-23 64 -102 148 0
25 48 120 148 0
6 -70 84 -149 0
-5 -52 -96 -149 0
39 66 97 -149 0
-3 70 -100 -149 0
-15 -67 100 -149 0
3 52 113 -149 0
-11 -54 -114 -149 0
-9 77 86 149 0
2 -71 108 149 0
-18 -72 -110 149 0
-39 78 -110 149 0
27 -69 -114 149 0
10 -43 -116 149 0
12 -75 118 149 0
12 44 -84 -150 0
-10 -71 -90 -150 0
-34 -65 108 -150 0
12 56 113 -150 0
7 80 -81 150 0
30 80 -88 150 0
-21 -59 -89 150 0
-21 -73 -89 150 0
28 54 94 150 0
-20 -70 98 150 0
-1 -57 -100 150 0
-37 -68 120 150 0
-27 55 -93 -151 0
3 41 93 -151 0
31 -48 -96 -151 0
16 -69 -102 -151 0
-17 64 -107 -151 0
34 54 -111 -151 0
-14 77 118 -151 0
26 -46 -100 151 0
17 55 -94 -152 0
23 43 -97 -152 0
-6 -51 99 -152 0
27 59 -106 -152 0
13 -46 -113 -152 0
8 45 -115 -152 0
1 70 -116 -152 0
-25 -49 -117 -152 0
-26 -53 -117 -152 0
-36 -74 81 152 0
-8 43 87 -153 0
35 -79 89 -153 0
13 -54 97 -153 0
-24 47 -110 -153 0
8 -51 -112 -153 0
-36 75 -97 153 0
20 -57 112 153 0
2 43 85 -154 0
37 -45 -86 -154 0
-17 74 87 -154 0
-9 79 98 -154 0
-30 59 109 -154 0
25 54 -119 -154 0
-7 -64 119 -154 0
-35 58 -90 154 0
33 -64 -93 154 0
-32 62 -101 154 0
-20 78 118 154 0
31 64 -82 -155 0
23 57 -84 -155 0
-16 72 -93 -155 0
9 50 -104 -155 0
6 -44 110 -155 0
-2 53 115 -155 0
38 52 -116 -155 0
-37 -44 -99 155 0
38 70 -113 155 0
37 51 116 155 0
-6 -54 118 155 0
-9 -69 -120 155 0
-5 -45 -81 -156 0
-39 -57 81 -156 0
-26 -77 -82 -156 0
34 -61 -90 -156 0
-15 69 113 -156 0
17 54 -114 -156 0
-17 76 -114 -156 0
-4 -55 -87 156 0
-22 72 95 156 0
10 -75 101 156 0
-24 -74 -112 156 0
8 62 106 -157 0
34 69 -112 -157 0
-32 61 -116 -157 0
24 -56 -83 157 0
32 -54 -89 157 0
-15 -52 94 157 0
-30 64 -108 157 0
-24 -74 120 157 0
-13 -43 98 -158 0
-31 -46 -100 -158 0
-17 58 -114 -158 0
-19 -54 120 -158 0
-27 -68 -97 158 0
-9 80 103 158 0
17 49 109 158 0
39 56 115 158 0
16 65 -117 158 0
14 -42 118 158 0
39 -62 82 -159 0
15 -76 -97 -159 0
-37 60 -107 -159 0
29 76 -112 -159 0
8 66 -92 159 0
-39 -43 -94 159 0
-21 -63 -101 159 0
18 -48 -110 159 0
-28 73 110 159 0
-14 76 -111 159 0
5 48 -113 159 0
11 -51 114 159 0
40 65 -116 159 0
-3 -74 -81 -160 0
-26 -71 -97 -160 0
19 54 -105 -160 0
7 -76 106 -160 0
6 68 -108 -160 0
-37 -56 113 -160 0
-25 65 -115 -160 0
-13 -65 -118 -160 0
-4 65 -83 160 0
-30 42 -84 160 0
-5 -44 -90 160 0
33 -41 91 160 0
-19 65 92 160 0
19 -53 -102 160 0
